Selected objective sense:  MINIMIZE
Selected objective  name:  OBJ
Selected RHS        name:  RHS1
Selected bound      name:  BND1
CPXPARAM_Preprocessing_Presolve                  0
CPXPARAM_LPMethod                                4
CPXPARAM_Threads                                 1
CPXPARAM_SolutionType                            2
CPXPARAM_TimeLimit                               3600
Tried aggregator 0 times.
DUAL formed by presolve
Reduced presolve eliminated 2250 rows and 2298 columns.
Reduced LP has 112462 rows, 30566 columns, and 2541829 nonzeros.
Presolve time = 0.89 sec. (570.90 ticks)
Parallel mode: none, using 1 thread for barrier

***NOTE: Found 24 dense columns.

Number of nonzeros in lower triangle of A*A' = 178289
Using Approximate Minimum Degree ordering
Total time for automatic ordering = 0.07 sec. (13.85 ticks)
Summary statistics for Cholesky factor:
  Rows in Factor            = 112486
  Integer space required    = 805741
  Total non-zeros in factor = 2851187
  Total FP ops to factor    = 73321537
 Itn      Primal Obj        Dual Obj  Prim Inf Upper Inf  Dual Inf Inf Ratio
   0  -4.7178599e+07   2.8563421e+08  1.12e+06  0.00e+00  1.13e+08  1.00e+00
   1  -2.1130976e+07   3.8522729e+08  1.11e+06  1.37e-12  1.05e+08  4.44e-04
   2  -9.2214991e+07   1.3274781e+08  5.87e+04  8.36e-13  5.01e+07  1.01e-03
   3  -5.2999838e+07   5.8518144e+06  2.78e+04  1.69e-12  7.94e+06  1.42e-02
   4  -7.7832997e+06   1.3544581e+05  3.70e+03  1.17e-12  1.35e+06  2.51e-02
   5  -6.2876382e+06   1.9164294e+05  3.02e+03  1.96e-12  1.06e+06  1.83e-02
   6  -3.3550157e+06   1.0539926e+05  1.63e+03  2.22e-12  2.92e+05  4.13e-02
   7  -6.7112661e+05   4.8974803e+04  3.41e+02  6.89e-13  4.83e+04  4.27e-01
   8  -1.1166424e+05   4.8011379e+04  7.56e+01  6.28e-13  3.49e+03  3.46e+00
   9   2.4996196e+04   4.7882791e+04  1.08e+01  2.49e-12  2.16e+02  2.79e+01
  10   3.7588597e+04   4.7563847e+04  4.60e+00  8.70e-13  1.47e+02  2.55e+01
  11   4.3371055e+04   4.7156293e+04  1.60e+00  2.36e-12  9.24e+01  3.30e+01
  12   4.5629890e+04   4.6783767e+04  3.77e-01  2.24e-12  5.10e+01  5.87e+01
  13   4.5957540e+04   4.6572513e+04  1.90e-01  9.93e-13  2.92e+01  1.11e+02
  14   4.6161767e+04   4.6464565e+04  7.80e-02  1.12e-12  1.75e+01  1.99e+02
  15   4.6229564e+04   4.6407406e+04  3.90e-02  4.97e-13  1.15e+01  3.28e+02
  16   4.6270690e+04   4.6375564e+04  1.63e-02  1.12e-12  8.08e+00  4.98e+02
  17   4.6291116e+04   4.6351395e+04  6.26e-03  3.60e-12  5.35e+00  7.82e+02
  18   4.6297183e+04   4.6333713e+04  3.43e-03  1.37e-12  3.33e+00  1.29e+03
  19   4.6299988e+04   4.6325660e+04  1.91e-03  2.48e-12  2.44e+00  1.86e+03
  20   4.6301663e+04   4.6321551e+04  1.04e-03  1.24e-12  1.99e+00  2.39e+03
  21   4.6302830e+04   4.6318241e+04  5.53e-04  6.21e-13  1.61e+00  3.07e+03
  22   4.6303290e+04   4.6316818e+04  3.71e-04  1.12e-12  1.45e+00  3.49e+03
  23   4.6303983e+04   4.6315612e+04  1.23e-04  2.23e-12  1.31e+00  3.95e+03
  24   4.6304130e+04   4.6313664e+04  7.58e-05  3.72e-13  1.08e+00  4.98e+03
  25   4.6304465e+04   4.6313164e+04  1.91e-05  8.69e-13  1.02e+00  5.33e+03
  26   4.6304500e+04   4.6312412e+04  1.41e-05  8.69e-13  9.31e-01  5.95e+03
  27   4.6304578e+04   4.6312175e+04  7.20e-06  1.24e-12  9.03e-01  6.18e+03
  28   4.6304610e+04   4.6311177e+04  5.19e-06  2.24e-12  7.82e-01  7.35e+03
  29   4.6304801e+04   4.6310488e+04  1.23e-06  1.49e-12  6.97e-01  8.42e+03
  30   4.6304827e+04   4.6309913e+04  3.45e-07  1.61e-12  6.26e-01  9.58e+03
  31   4.6304849e+04   4.6309240e+04  2.58e-07  4.97e-13  5.42e-01  1.14e+04
  32   4.6304874e+04   4.6308904e+04  2.18e-07  8.69e-13  4.99e-01  1.26e+04
  33   4.6304890e+04   4.6308828e+04  1.98e-07  7.45e-13  4.89e-01  1.29e+04
  34   4.6304977e+04   4.6308186e+04  1.20e-07  1.24e-12  4.05e-01  1.60e+04
  35   4.6304988e+04   4.6308024e+04  1.16e-07  9.93e-13  3.84e-01  1.70e+04
  36   4.6305015e+04   4.6307845e+04  8.40e-08  1.12e-12  3.61e-01  1.83e+04
  37   4.6305070e+04   4.6307412e+04  1.74e-07  9.93e-13  3.04e-01  2.25e+04
  38   4.6305094e+04   4.6306619e+04  1.74e-07  2.48e-12  1.98e-01  3.81e+04
  39   4.6305140e+04   4.6306349e+04  1.51e-07  1.12e-12  1.60e-01  4.89e+04
  40   4.6305181e+04   4.6306260e+04  2.50e-07  7.45e-13  1.48e-01  5.39e+04
  41   4.6305191e+04   4.6306075e+04  1.46e-06  1.24e-12  1.21e-01  6.80e+04
  42   4.6305213e+04   4.6305880e+04  8.74e-06  1.12e-12  9.23e-02  9.27e+04
  43   4.6305238e+04   4.6305473e+04  1.21e-05  4.97e-13  3.20e-02  3.72e+05
  44   4.6305248e+04   4.6305441e+04  7.85e-05  9.94e-13  2.62e-02  4.61e+05
  45   4.6305256e+04   4.6305353e+04  1.43e-04  9.95e-13  1.06e-02  1.26e+06
  46   4.6305269e+04   4.6305312e+04  5.86e-04  7.49e-13  2.44e-03  5.01e+06
  47   4.6305279e+04   4.6305302e+04  1.20e-03  1.13e-12  7.16e-04  1.34e+07
  48   4.6305289e+04   4.6305301e+04  1.78e-03  2.51e-13  3.24e-04  1.78e+07
  49   4.6305290e+04   4.6305299e+04  1.76e-03  6.26e-13  1.87e-04  2.50e+07
  50   4.6305293e+04   4.6305298e+04  2.84e-03  2.63e-12  5.87e-05  6.05e+07
  51   4.6305295e+04   4.6305297e+04  3.16e-03  7.50e-13  4.28e-05  7.14e+07
  52   4.6305296e+04   4.6305297e+04  3.55e-03  1.87e-12  2.98e-05  9.87e+07
  53   4.6305296e+04   4.6305297e+04  4.14e-03  2.12e-12  1.57e-05  1.80e+08
Barrier time = 10.99 sec. (11157.94 ticks)

Total time on 1 threads = 10.99 sec. (11157.94 ticks)
Solve time: 10.991802675
Barrier iterations: 53
